



10 10
3 16 6 1 0 9 9 11 8 18 4 1 7 5 1 15 5 6 2 14
9 10 1 10 2 6 7 14 0 2 5 19 4 1 3 4 6 15 8 14
6 7 8 14 0 4 5 4 2 8 7 12 9 2 4 9 1 16 3 14
4 15 1 19 8 13 0 3 2 3 6 3 3 14 9 2 7 1 5 2
3 7 4 15 0 18 2 1 1 18 7 6 6 7 8 10 9 13 5 16
4 17 2 7 1 16 3 18 9 7 0 12 8 5 5 14 6 18 7 17
3 7 7 10 2 19 6 7 0 14 5 14 1 3 9 4 4 6 8 7
3 19 4 12 9 11 6 2 7 16 0 7 1 17 5 16 2 7 8 8
9 10 1 14 8 11 6 1 7 15 2 15 4 6 5 2 3 17 0 17
8 4 7 14 3 17 4 12 0 2 6 2 1 10 5 19 2 17 9 2
